Linux optc-09-14 4.15.0-58-generic #64-Ubuntu SMP Tue Aug 6 11:12:41 UTC 2019 x86_64 x86_64 x86_64 GNU/Linux

top - 02:44:43 up 1 day, 16:45,  0 users,  load average: 0,42, 0,47, 0,58
Tasks: 289 gesamt,   1 laufend, 149 schlafend,   0 gestoppt,   0 Zombie
%CPU(s):  7,2 be,  0,3 sy,  0,0 ni, 92,5 un,  0,0 wa,  0,0 hi,  0,0 si,  0,0 st
KiB Spch : 97514992 gesamt, 95169640 frei,   648476 belegt,  1696880 Puff/Cache
KiB Swap:  8388604 gesamt,  8388604 frei,        0 belegt. 96124992 verfü Spch 

  PID USER      PR  NI    VIRT    RES    SHR S  %CPU %MEM     ZEIT+ BEFEHL
    1 root      20   0  233872   9412   6680 S   0,0  0,0   0:13.36 systemd
    2 root      20   0       0      0      0 S   0,0  0,0   0:00.14 kthreadd
    3 root      20   0       0      0      0 I   0,0  0,0   0:02.40 kworker/0:0
    4 root       0 -20       0      0      0 I   0,0  0,0   0:00.00 kworker/0:+
    6 root      20   0       0      0      0 I   0,0  0,0   0:00.00 kworker/u3+
    7 root       0 -20       0      0      0 I   0,0  0,0   0:00.00 mm_percpu_+
    8 root      20   0       0      0      0 S   0,0  0,0   0:00.02 ksoftirqd/0
    9 root      20   0       0      0      0 I   0,0  0,0   0:16.61 rcu_sched

hard time limit: 04:10:00
hard mem limit: 55100

SLURM jobID: 2182845

@01 /nfs/optimi/kombadon/IP/coral/neos-935234.mps.gz ===========
-----------------------------
Fr 23. Aug 02:44:43 CEST 2019
-----------------------------
@03 1566521083
@05 7200
SCIP version 6.0.0 [precision: 8 byte] [memory: block] [mode: optimized] [LP solver: CPLEX 12.8.0.0] [GitHash: 41ab6e0014]
Copyright (C) 2002-2018 Konrad-Zuse-Zentrum fuer Informationstechnik Berlin (ZIB)

External codes: 
  Readline 7.0         GNU library for command line editing (gnu.org/s/readline)
  CPLEX 12.8.0.0       Linear Programming Solver developed by IBM (www.cplex.com)
  CppAD 20180000.0     Algorithmic Differentiation of C++ algorithms developed by B. Bell (www.coin-or.org/CppAD)
  ZLIB 1.2.11          General purpose compression library by J. Gailly and M. Adler (zlib.net)
  GMP 6.1.2            GNU Multiple Precision Arithmetic Library developed by T. Granlund (gmplib.org)
  bliss 0.73p          Computing Graph Automorphism Groups by T. Junttila and P. Kaski (http://www.tcs.hut.fi/Software/bliss/)

user parameter file <scip.set> not found - using default parameters

SCIP> 
SCIP> set load /home/optimi/bzfhende/opti/scip-opti/check/../settings/enable_treeeprofile.set
loaded parameter file </home/optimi/bzfhende/opti/scip-opti/check/../settings/enable_treeprofile.set>
SCIP> set misc referencevalue 2432
misc/referencevalue = 2432
SCIP> set limits time 7200
limits/time = 7200
SCIP> set limits nodes 2100000000
limits/nodes = 2100000000
SCIP> set limits memory 50000
limits/memory = 50000
SCIP> set lp advanced threads 1
lp/threads = 1
SCIP> set timing clocktype 1
timing/clocktype = 1
SCIP> set display freq 10000
display/freq = 10000
SCIP> set memory savefac 1.0
memory/savefac = 1
SCIP> set save /home/optimi/bzfhende/opti/scip-opti/check/treesize.estimation.jouurnal.3/bzfhende.MMMc.381_neos-935234.scip.M640.enable_treeprofile.set
saved parameter file </home/optimi/bzfhende/opti/scip-opti/check/treesize.estimation.journal.3/bzfhende.MMMc.381_neos-935234.scip.M640.enable_treeprofile.set>
SCIP> read /nfs/optimi/kombadon/IP/coral/neos-935234.mps.gz

read problem </nfs/optimi/kombadon/IP/coral/neos-935234.mps.gz>
============

Warning line 9572: row "R9570" for objective function "N" ignored
original problem has 10309 variables (7530 bin, 0 int, 0 impl, 2779 cont) and 9568 constraints
SCIP> display parameters

number of parameters = 2448
non-default parameter settings:
display/freq = 10000
limits/time = 7200
limits/nodes = 2100000000
limits/memory = 50000
lp/threads = 1
memory/savefac = 1
misc/referencevalue = 2432
presolving/maxrestarts = 0
estimates/profile/enabled = TRUE
estimates/profile/maxdepthfactor = 10
estimates/profile/freq = 0

SCIP> optimize

Activating tree profile data collection
presolving:
(round 1, fast)       2161 del vars, 0 del conss, 0 add conss, 139 chg bounds, 0 chg sides, 0 chg coeffs, 0 upgd conss, 0 impls, 7545 clqs
(round 2, fast)       2161 del vars, 0 del conss, 0 add conss, 139 chg bounds, 139 chg sides, 0 chg coeffs, 0 upgd conss, 0 impls, 7545 clqs
(round 3, fast)       2161 del vars, 0 del conss, 0 add conss, 757 chg bounds, 139 chg sides, 0 chg coeffs, 0 upgd conss, 0 impls, 7545 clqs
(round 4, exhaustive) 2161 del vars, 1214 del conss, 0 add conss, 757 chg bounds, 139 chg sides, 0 chg coeffs, 0 upgd conss, 0 impls, 7545 clqs
(round 5, exhaustive) 2161 del vars, 1214 del conss, 0 add conss, 757 chg bounds, 139 chg sides, 0 chg coeffs, 7744 upgd conss, 0 impls, 7545 clqs
(round 6, medium)     2161 del vars, 1217 del conss, 2 add conss, 757 chg bounds, 141 chg sides, 8 chg coeffs, 7744 upgd conss, 0 impls, 7545 clqs
   (0.9s) probing: 1000/7538 (13.3%) - 0 fixings, 0 aggregations, 16634 implications, 0 bound changes
   (0.9s) probing: 1001/7538 (13.3%) - 0 fixings, 0 aggregations, 16653 implications, 0 bound changes
   (0.9s) probing aborted: 1000/1000 successive useless probings
presolving (7 rounds: 7 fast, 4 medium, 3 exhaustive):
 2161 deleted vars, 1217 deleted constraints, 2 added constraints, 757 tightened bounds, 0 added holes, 141 changed sides, 8 changed coefficients
 0 implications, 24198 cliques
presolved problem has 8148 variables (7530 bin, 0 int, 618 impl, 0 cont) and 8353 constraints
    190 constraints of type <knapsack>
   7545 constraints of type <setppc>
    610 constraints of type <linear>
      8 constraints of type <logicor>
transformed objective value is always integral (scale: 1)
Presolving Time: 0.91

 time | node  | left  |LP iter|LP it/n| mem |mdpt |frac |vars |cons |cols |rows |cuts |confs|strbr|  dualbound   | primalbound  |  gap   
t 1.0s|     1 |     0 |     0 |     - |  64M|   0 |   - |8148 |8353 |   0 |   0 |   0 |   0 |   0 |-4.679660e+06 | 4.740000e+05 |    Inf 
Q 1.0s|     1 |     0 |     0 |     - |  74M|   0 |   - |8148 |8353 |8148 |8353 |   0 |   0 |   0 |-4.679660e+06 | 7.373400e+04 |    Inf 
V 1.2s|     1 |     0 |    53 |     - |  76M|   0 |   - |8148 |8353 |8148 |8353 |   0 |   0 |   0 |-4.679660e+06 | 4.623200e+04 |    Inf 
V31.3s|     1 |     0 |  3748 |     - |  78M|   0 | 468 |8148 |8374 |8148 |8353 |   0 |  21 |   0 |-4.679660e+06 | 2.392600e+04 |    Inf 
 37.7s|     1 |     0 | 23169 |     - |  79M|   0 |1442 |8148 |8374 |8148 |8353 |   0 |  21 |   0 | 2.422500e+03 | 2.392600e+04 | 887.66%
 40.2s|     1 |     0 | 27057 |     - |  83M|   0 | 574 |8148 |8375 |8148 |8362 |   9 |  22 |   0 | 2.422500e+03 | 2.392600e+04 | 887.66%
 42.4s|     1 |     0 | 31596 |     - |  84M|   0 | 689 |8148 |8376 |8148 |8374 |  21 |  23 |   0 | 2.422500e+03 | 2.392600e+04 | 887.66%
 44.1s|     1 |     0 | 34798 |     - |  85M|   0 | 797 |8148 |8377 |8148 |8385 |  32 |  24 |   0 | 2.422500e+03 | 2.392600e+04 | 887.66%
 47.1s|     1 |     0 | 40708 |     - |  86M|   0 | 601 |8148 |8378 |8148 |8391 |  38 |  25 |   0 | 2.422500e+03 | 2.392600e+04 | 887.66%
 48.7s|     1 |     0 | 43855 |     - |  87M|   0 | 629 |8148 |8378 |8148 |8393 |  40 |  25 |   0 | 2.422500e+03 | 2.392600e+04 | 887.66%
 50.2s|     1 |     0 | 46614 |     - |  88M|   0 | 429 |8148 |8378 |8148 |8397 |  44 |  25 |   0 | 2.422500e+03 | 2.392600e+04 | 887.66%
 51.5s|     1 |     0 | 48822 |     - |  89M|   0 | 546 |8148 |8379 |8148 |8407 |  54 |  26 |   0 | 2.422500e+03 | 2.392600e+04 | 887.66%
 53.1s|     1 |     0 | 51945 |     - |  90M|   0 | 398 |8148 |8380 |8148 |8412 |  59 |  27 |   0 | 2.427000e+03 | 2.392600e+04 | 885.83%
 54.2s|     1 |     0 | 53982 |     - |  90M|   0 | 522 |8148 |8381 |8148 |8418 |  65 |  28 |   0 | 2.427000e+03 | 2.392600e+04 | 885.83%
 55.2s|     1 |     0 | 55494 |     - |  91M|   0 | 329 |8148 |8382 |8148 |8425 |  72 |  29 |   0 | 2.427000e+03 | 2.392600e+04 | 885.83%
 time | node  | left  |LP iter|LP it/n| mem |mdpt |frac |vars |cons |cols |rows |cuts |confs|strbr|  dualbound   | primalbound  |  gap   
 56.4s|     1 |     0 | 57808 |     - |  92M|   0 | 332 |8148 |8383 |8148 |8429 |  76 |  30 |   0 | 2.427000e+03 | 2.392600e+04 | 885.83%
u66.4s|     1 |     0 | 79341 |     - |  93M|   0 |   - |8148 |8383 |8148 |8429 |   0 |  30 |   0 | 2.427000e+03 | 2.433000e+03 |   0.25%
 70.3s|     1 |     0 | 88046 |     - |  94M|   0 | 332 |8148 |8383 |8148 |8429 |  76 |  30 |   0 | 2.427000e+03 | 2.433000e+03 |   0.25%
 70.4s|     1 |     0 | 88046 |     - |  94M|   0 | 332 |8148 |8384 |8148 |8391 |  76 |  31 |   0 | 2.427000e+03 | 2.433000e+03 |   0.25%
 71.3s|     1 |     0 | 89842 |     - |  94M|   0 | 614 |8148 |8348 |8148 |8369 |  78 |  31 |   0 | 2.427000e+03 | 2.433000e+03 |   0.25%
 71.4s|     1 |     0 | 89842 |     - |  94M|   0 | 614 |8148 |8348 |8148 |8368 |  78 |  31 |   0 | 2.427000e+03 | 2.433000e+03 |   0.25%
SCIP nodes: 1 Estimation: -1
 98.7s|     1 |     2 | 89842 |     - |  94M|   0 | 614 |8148 |8146 |8148 |8368 |  78 |  31 |  58 | 2.427000e+03 | 2.433000e+03 |   0.25%
   (99.4s) symmetry computation started: requiring (bin +, int -, cont -), (fixed: bin -, int +, cont -)
   (99.5s) symmetry computation finished: 32 generators found (max: 1500, log10 of symmetry group size: 10.9)
   (99.5s) turning off presolver <domcol> for remaining computations in order to avoid conflicts
SCIP nodes: 2 Estimation: -1
SCIP nodes: 4 Estimation: -1
SCIP nodes: 8 Estimation: -1
SCIP nodes: 16 Estimation: -1
SCIP nodes: 32 Estimation: -1
SCIP nodes: 64 Estimation: -1
SCIP nodes: 128 Estimation: -1
SCIP nodes: 256 Estimation: -1
* 944s|   415 |   401 |631758 |1391.1 | 164M|  63 |   - |8148 |8283 |8148 |8325 | 239 | 165 | 440 | 2.427000e+03 | 2.432000e+03 |   0.21%
SCIP nodes: 512 Estimation: -1
SCIP nodes: 1024 Estimation: 2.96297e+06
SCIP nodes: 2048 Estimation: 3.65296e+07
s2930s|  2654 |  2492 |  3389k|1256.6 | 220M| 117 |   5 |8148 |9452 |8148 |8323 |1025 |1340 |1808 | 2.427000e+03 | 2.432000e+03 |   0.21%
SCIP nodes: 4096 Estimation: 2.90662e+11
SCIP nodes: 8192 Estimation: 9.41479e+12

SCIP Status        : solving was interrupted [time limit reached]
Solving Time (sec) : 7200.00
Solving Nodes      : 8369
Primal Bound       : +2.43200000000000e+03 (611 solutions)
Dual Bound         : +2.42700000000029e+03
Gap                : 0.21 %

SCIP> display statistics

SCIP Status        : solving was interrupted [time limit reached]
Total Time         :    7200.03
  solving          :    7200.00
  presolving       :       0.91 (included in solving)
  reading          :       0.03
  copying          :       0.73 (29 #copies) (minimal 0.01, maximal 0.06, average 0.03)
Original Problem   :
  Problem name     : file
  Variables        : 10309 (7530 binary, 0 integer, 0 implicit integer, 2779 continuous)
  Constraints      : 9568 initial, 9568 maximal
  Objective        : minimize, 10309 non-zeros (abs.min = 1, abs.max = 1000)
Presolved Problem  :
  Problem name     : t_file
  Variables        : 8148 (7530 binary, 0 integer, 618 implicit integer, 0 continuous)
  Constraints      : 8353 initial, 12184 maximal
  Objective        : minimize, 8148 non-zeros (abs.min = 1, abs.max = 999)
Presolvers         :   ExecTime  SetupTime  Calls  FixedVars   AggrVars   ChgTypes  ChgBounds   AddHoles    DelCons    AddCons   ChgSides   ChgCoefs
  boundshift       :       0.00       0.00      0          0          0          0          0          0          0          0          0          0
  convertinttobin  :       0.00       0.00      0          0          0          0          0          0          0          0          0          0
  domcol           :       0.00       0.00      1          0          0          0          0          0          0          0          0          0
  dualagg          :       0.00       0.00      0          0          0          0          0          0          0          0          0          0
  dualcomp         :       0.00       0.00      0          0          0          0          0          0          0          0          0          0
  dualinfer        :       0.00       0.00      0          0          0          0          0          0          0          0          0          0
  gateextraction   :       0.01       0.00      1          0          0          0          0          0          0          0          0          0
  implics          :       0.00       0.00      4          0          0          0          0          0          0          0          0          0
  inttobinary      :       0.00       0.00      0          0          0          0          0          0          0          0          0          0
  qpkktref         :       0.00       0.00      0          0          0          0          0          0          0          0          0          0
  redvub           :       0.00       0.00      0          0          0          0          0          0          0          0          0          0
  sparsify         :       0.01       0.00      1          0          0          0          0          0          0          0          0          0
  stuffing         :       0.00       0.00      0          0          0          0          0          0          0          0          0          0
  symbreak         :       0.00       0.00      0          0          0          0          0          0          0          0          0          0
  symmetry         :       0.00       0.00      0          0          0          0          0          0          0          0          0          0
  trivial          :       0.00       0.00      7          0          0          0          0          0          0          0          0          0
  tworowbnd        :       0.00       0.00      0          0          0          0          0          0          0          0          0          0
  dualfix          :       0.00       0.00      7       2022          0          0          0          0          0          0          0          0
  genvbounds       :       0.00       0.00      0          0          0          0          0          0          0          0          0          0
  orbitalfixing    :       0.00       0.00      0          0          0          0          0          0          0          0          0          0
  probing          :       0.76       0.00      1          0          0          0          0          0          0          0          0          0
  pseudoobj        :       0.00       0.00      0          0          0          0          0          0          0          0          0          0
  vbounds          :       0.00       0.00      1          0          0          0          0          0          0          0          0          0
  knapsack         :       0.01       0.00      5          0          0          0          0          0          1          2          2          8
  setppc           :       0.01       0.00      5          0          0          0          0          0          2          0          0          0
  linear           :       0.07       0.00     10          0        139          0        757          0       1214          0        139          0
  logicor          :       0.01       0.00      5          0          0          0          0          0          0          0          0          0
  bounddisjunction :       0.00       0.00      0          0          0          0          0          0          0          0          0          0
  benders          :       0.00       0.00      0          0          0          0          0          0          0          0          0          0
  components       :       0.01       0.00      1          0          0          0          0          0          0          0          0          0
  root node        :          -          -      -        245          -          -       1167          -          -          -          -          -
Constraints        :     Number  MaxNumber  #Separate #Propagate    #EnfoLP    #EnfoRelax  #EnfoPS    #Check   #ResProp    Cutoffs    DomReds       Cuts    Applied      Conss   Children
  benderslp        :          0          0          0          0       8227          0          0       1223          0          0          0          0          0          0          0
  integral         :          0          0          0          0       8227          0          0       1223          0          0       1702          0          0       2246      16062
  knapsack         :        190        190         12     139130          1          0          0       1194      12654         51      23723          0          0          0          0
  setppc           :       7545+      7559         12     139052          1          0          0        617     312665         11     245568          0          0          0          0
  linear           :        610+       624         12     138509          1          0          0        611        532         17      27970          0          0          0          0
  logicor          :          8+      3734         12      11226          1          0          0        611        371        106        190          0          0          0          0
  bounddisjunction :          0+       166          0       2394          0          0          0          0          2         10          0          0          0          0          0
  benders          :          0          0          0          0          1          0          0        612          0          0          0          0          0          0          0
  countsols        :          0          0          0          0          1          0          0        612          0          0          0          0          0          0          0
  components       :          0          0          0          0          0          0          0          0          0          0          0          0          0          0          0
Constraint Timings :  TotalTime  SetupTime   Separate  Propagate     EnfoLP     EnfoPS     EnfoRelax   Check    ResProp    SB-Prop
  benderslp        :       0.00       0.00       0.00       0.00       0.00       0.00       0.00       0.00       0.00       0.00
  integral         :    1550.44       0.00       0.00       0.00    1550.32       0.00       0.00       0.12       0.00       0.00
  knapsack         :       0.35       0.00       0.00       0.28       0.00       0.00       0.00       0.00       0.01       0.06
  setppc           :       2.03       0.00       0.00       1.14       0.00       0.00       0.00       0.12       0.29       0.48
  linear           :       0.43       0.00       0.00       0.36       0.00       0.00       0.00       0.02       0.00       0.05
  logicor          :       0.18       0.00       0.00       0.15       0.00       0.00       0.00       0.00       0.00       0.03
  bounddisjunction :       0.01       0.00       0.00       0.01       0.00       0.00       0.00       0.00       0.00       0.00
  benders          :       0.00       0.00       0.00       0.00       0.00       0.00       0.00       0.00       0.00       0.00
  countsols        :       0.00       0.00       0.00       0.00       0.00       0.00       0.00       0.00       0.00       0.00
  components       :       0.06       0.00       0.00       0.05       0.00       0.00       0.00       0.00       0.00       0.01
Propagators        : #Propagate   #ResProp    Cutoffs    DomReds
  dualfix          :          4          0          0          0
  genvbounds       :          0          0          0          0
  nlobbt           :          0          0          0          0
  obbt             :          0          0          0          0
  orbitalfixing    :       9311          0          0       2611
  probing          :          0          0          0          0
  pseudoobj        :      38865          0          0          0
  redcost          :      22990          0          0     464692
  rootredcost      :          2          0          0        499
  vbounds          :     144436          0          0          0
Propagator Timings :  TotalTime  SetupTime   Presolve  Propagate    ResProp    SB-Prop
  dualfix          :       0.00       0.00       0.00       0.00       0.00       0.00
  genvbounds       :       0.06       0.00       0.00       0.06       0.00       0.00
  nlobbt           :       0.00       0.00       0.00       0.00       0.00       0.00
  obbt             :       0.00       0.00       0.00       0.00       0.00       0.00
  orbitalfixing    :       3.85       0.00       0.00       3.85       0.00       0.00
  probing          :       0.76       0.00       0.76       0.00       0.00       0.00
  pseudoobj        :       0.26       0.00       0.00       0.25       0.00       0.01
  redcost          :      50.18       0.00       0.00      50.18       0.00       0.00
  rootredcost      :       0.15       0.00       0.00       0.12       0.00       0.03
  vbounds          :       0.23       0.00       0.00       0.23       0.00       0.00
Orbital fixing     :
  vars fixed to 0  :       2611
  vars fixed to 1  :          0
Conflict Analysis  :       Time      Calls    Success    DomReds  Conflicts   Literals    Reconvs ReconvLits   Dualrays   Nonzeros   LP Iters   (pool size: [10000,10000])
  propagation      :       0.01        174        173          -        440      107.2         21        5.7          -          -          -
  infeasible LP    :       0.00          0          0          -          0        0.0          0        0.0          0        0.0          0
  bound exceed. LP :      12.92        705        667          -      31477      323.1        144        3.4         55     1128.6       5240
  strong branching :       0.00          0          0          -          0        0.0          0        0.0          -          -          0
  pseudo solution  :       0.00          0          0          -          0        0.0          0        0.0          -          -          -
  applied globally :       0.31          -          -          0       6166      134.2          -          -         55          -          -
  applied locally  :          -          -          -          0          0        0.0          -          -          0          -          -
Separators         :   ExecTime  SetupTime      Calls    Cutoffs    DomReds       Cuts    Applied      Conss
  cut pool         :       0.14                  1810          -          -       1300          -          -    (maximal pool size: 252)
  aggregation      :       0.57       0.00        445          0          0          0          0          0
  cgmip            :       0.00       0.00          0          0          0          0          0          0
  clique           :       1.46       0.00         12          0          0          0          2          0
  closecuts        :       0.00       0.00          0          0          0          0          0          0
  cmir             :       0.00       0.00          0          0          0          0          0          0
  convexproj       :       0.00       0.00          0          0          0          0          0          0
  disjunctive      :       0.00       0.00          0          0          0          0          0          0
  eccuts           :       0.00       0.00          0          0          0          0          0          0
  flowcover        :       0.00       0.00          0          0          0          0          0          0
  gauge            :       0.00       0.00          0          0          0          0          0          0
  gomory           :      11.76       0.00        424          0          0         81        239          0
  impliedbounds    :       0.35       0.00        445          0         65          0         11          0
  intobj           :       0.00       0.00          0          0          0          0          0          0
  mcf              :       0.00       0.00          1          0          0          0          0          0
  oddcycle         :       0.00       0.00          0          0          0          0          0          0
  rapidlearning    :       0.00       0.00          0          0          0          0          0          0
  strongcg         :       7.01       0.00        311          0          0         78          3          0
  zerohalf         :       2.27       0.00        426          0          0        910       1631          0
Pricers            :   ExecTime  SetupTime      Calls       Vars
  problem variables:       0.00          -          0          0
Branching Rules    :   ExecTime  SetupTime   BranchLP  BranchExt   BranchPS    Cutoffs    DomReds       Cuts      Conss   Children
  allfullstrong    :       0.00       0.00          0          0          0          0          0          0          0          0
  cloud            :       0.00       0.00          0          0          0          0          0          0          0          0
  distribution     :       0.00       0.00          0          0          0          0          0          0          0          0
  fullstrong       :       0.00       0.00          0          0          0          0          0          0          0          0
  inference        :       0.00       0.00          0          0          0          0          0          0          0          0
  leastinf         :       0.00       0.00          0          0          0          0          0          0          0          0
  lookahead        :       0.00       0.00          0          0          0          0          0          0          0          0
  mostinf          :       0.00       0.00          0          0          0          0          0          0          0          0
  multaggr         :       0.00       0.00          0          0          0          0          0          0          0          0
  nodereopt        :       0.00       0.00          0          0          0          0          0          0          0          0
  pscost           :       0.00       0.00          0          0          0          0          0          0          0          0
  random           :       0.00       0.00          0          0          0          0          0          0          0          0
  relpscost        :    1550.28       0.00       8226          0          0          0       1702          0       2313      16062
Primal Heuristics  :   ExecTime  SetupTime      Calls      Found       Best
  LP solutions     :       0.00          -          -          1          1
  relax solutions  :       0.00          -          -          0          0
  pseudo solutions :       0.00          -          -          0          0
  strong branching :       0.31          -          -          0          0
  actconsdiving    :       0.00       0.00          0          0          0
  alns             :       0.86       0.00          5          0          0
  bound            :       0.00       0.00          0          0          0
  clique           :       0.04       0.00          1          1          1
  coefdiving       :      23.98       0.00         37          0          0
  completesol      :       0.00       0.00          0          0          0
  conflictdiving   :       0.00       0.00          0          0          0
  crossover        :       2.78       0.00         11          4          0
  dins             :       0.00       0.00          0          0          0
  distributiondivin:      31.95       0.00         36          0          0
  dualval          :       0.00       0.00          0          0          0
  farkasdiving     :     347.03       0.00         37          1          1
  feaspump         :       3.66       0.00          1          1          0
  fixandinfer      :       0.00       0.00          0          0          0
  fracdiving       :       2.57       0.00         37          0          0
  gins             :       0.30       0.00          4          4          0
  guideddiving     :       9.16       0.00         36          0          0
  indicator        :       0.00       0.00          0          0          0
  intdiving        :       0.00       0.00          0          0          0
  intshifting      :       0.00       0.00          0          0          0
  linesearchdiving :       6.71       0.00         36          0          0
  localbranching   :       0.00       0.00          0          0          0
  locks            :       0.13       0.00          1          0          0
  lpface           :    1747.37       0.00          5          0          0
  mpec             :       0.00       0.00          0          0          0
  multistart       :       0.00       0.00          0          0          0
  mutation         :       0.00       0.00          0          0          0
  nlpdiving        :       0.00       0.00          0          0          0
  objpscostdiving  :      66.04       0.00          8          0          0
  octane           :       0.00       0.00          0          0          0
  ofins            :       0.01       0.00          0          0          0
  oneopt           :       0.02       0.00          4          0          0
  proximity        :       0.00       0.00          0          0          0
  pscostdiving     :      92.56       0.00         37          0          0
  randrounding     :       0.13       0.00        857          1          0
  rens             :       0.09       0.00          1          1          0
  reoptsols        :       0.00       0.00          0          0          0
  repair           :       0.00       0.00          0          0          0
  rins             :       1.81       0.00          7          5          0
  rootsoldiving    :      68.16       0.00         13          1          0
  rounding         :       0.91       0.00       1286          0          0
  shiftandpropagate:       0.00       0.00          0          0          0
  shifting         :       1.43       0.00       1237         14          0
  simplerounding   :       0.73       0.00       8852          0          0
  subnlp           :       0.00       0.00          0          0          0
  trivial          :       0.02       0.00          2          2          1
  trivialnegation  :       0.00       0.00          0          0          0
  trysol           :       0.02       0.00          0          0          0
  twoopt           :       0.00       0.00          0          0          0
  undercover       :       0.00       0.00          0          0          0
  vbounds          :      30.35       0.00          1          2          2
  veclendiving     :      15.49       0.00         37          0          0
  zeroobj          :       0.00       0.00          0          0          0
  zirounding       :       2.49       0.00       8029        573          0
  other solutions  :          -          -          -          0          -
Diving Statistics  :      Calls      Nodes   LP Iters Backtracks  Conflicts   MinDepth   MaxDepth   AvgDepth  RoundSols  NLeafSols  MinSolDpt  MaxSolDpt  AvgSolDpt
  actconsdiving    :          0          -          -          -          -          -          -          -          -          -          -          -          -
  coefdiving       :         37       9564      62353          2       1778        101       1103      332.5          0          -          -          -          -
  conflictdiving   :          0          -          -          -          -          -          -          -          -          -          -          -          -
  distributiondivin:         36       1356      83041         41       2075         53        202      110.4          0          -          -          -          -
  farkasdiving     :         37       2045     966169        101       8269         24        305      123.4          0          1         24         24       24.0
  fracdiving       :         37       3062       1902          8       1423         54        342      154.8          0          -          -          -          -
  guideddiving     :         36       5343      20446          3       1405         73        904      216.8          0          -          -          -          -
  linesearchdiving :         36       3082      14950         27       1776         46        764      157.4          0          -          -          -          -
  pscostdiving     :         37       5089     251688         41       3072         54        731      208.6          0          -          -          -          -
  veclendiving     :         37      11815      37977          6       1598         74       1085      390.7          0          -          -          -          -
Neighborhoods      :      Calls  SetupTime  SolveTime SolveNodes       Sols       Best       Exp3  EpsGreedy        UCB TgtFixRate  Opt  Inf Node Stal  Sol  Usr Othr Actv
  rens             :          1       0.06       0.03          1          0          0    0.00000   -1.00000    1.00000      0.700    0    1    0    0    0    0    0    1
  rins             :          1       0.03       0.53         88          0          0    0.00000   -1.00000    1.00000      0.900    0    0    0    1    0    0    0    1
  mutation         :          1       0.04       0.01          0          0          0    0.00000   -1.00000    1.00000      0.700    0    1    0    0    0    0    0    1
  localbranching   :          0       0.00       0.00          0          0          0    0.00000   -1.00000    1.00000      0.900    0    0    0    0    0    0    0    1
  crossover        :          1       0.04       0.02          1          0          0    0.00000   -1.00000    1.00000      0.700    0    1    0    0    0    0    0    1
  proximity        :          1       0.03       0.03          1          0          0    0.00000   -1.00000    1.00000      0.700    0    1    0    0    0    0    0    1
  zeroobjective    :          0       0.00       0.00          0          0          0    0.00000   -1.00000    1.00000      0.900    0    0    0    0    0    0    0    1
  dins             :          0       0.00       0.00          0          0          0    0.00000   -1.00000    1.00000      0.900    0    0    0    0    0    0    0    1
LP                 :       Time      Calls Iterations  Iter/call   Iter/sec  Time-0-It Calls-0-It    ItLimit
  primal LP        :     122.34        245          0       0.00       0.00     122.34        245
  dual LP          :    2973.57      15030    7474186     815.34    2513.54       5.55       5863
  lex dual LP      :       0.00          0          0       0.00          -
  barrier LP       :       0.00          0          0       0.00          -       0.00          0
  resolve instable :       0.00          0          0       0.00          -
  diving/probing LP:     652.20       2835    1843055     650.11    2825.90
  strong branching :    1537.26       5296    3895546     735.56    2534.08          -          -       5609
    (at root node) :          -         58      58000    1000.00          -
  conflict analysis:       9.36        524       5240      10.00     559.83
B&B Tree           :
  number of runs   :          1
  nodes            :       8369 (8031 internal, 338 leaves)
  feasible leaves  :          1
  infeas. leaves   :         19
  objective leaves :        317
  nodes (total)    :       8369 (8031 internal, 338 leaves)
  nodes left       :       7692
  max depth        :        129
  max depth (total):        129
  backtracks       :        343 (4.1%)
  early backtracks :        313 (91.3%)
  nodes exc. ref.  :          0 (0.0%)
  delayed cutoffs  :          0
  repropagations   :        947 (892 domain reductions, 0 cutoffs)
  avg switch length:       3.14
  switching time   :     123.86
Root Node          :
  First LP value   : +2.42250000000000e+03
  First LP Iters   :      19419 (3112.02 Iter/sec)
  First LP Time    :       6.24
  Final Dual Bound : +2.42700000000029e+03
  Final Root Iters :      55854
  Root LP Estimate : +2.42724708667607e+03
Solution           :
  Solutions found  :        611 (6 improvements)
  First Solution   : +4.74000000000000e+05   (in run 1, after 1 nodes, 0.95 seconds, depth 0, found by <trivial>)
  Gap First Sol.   :   infinite
  Gap Last Sol.    :       0.21 %
  Primal Bound     : +2.43200000000000e+03   (in run 1, after 2654 nodes, 2930.23 seconds, depth 40, found by <shifting>)
  Dual Bound       : +2.42700000000029e+03
  Gap              :       0.21 %
  Avg. Gap         :       1.09 % (7850.19 primal-dual integral)
  Tree Data        : 16063 nodes (8371 visited, 8031 inner, 340 leaves, 7692 open), progress: 0.0001
Tree Estimation    :       estim       value       trend  resolution      smooth
  wbe              :     5476838           -           -           -           -
  tree profile     : 9414788679828           -           -           -           -
  gap              :       16742     0.99794     0.00000           1       16730
  progress         :       16742     0.00012     0.00000           1       16730
  leaf-frequency   :       40740     0.04057     0.00002           1       40490
  ssg              :       16742     0.99948    -0.00000           1       16730
  open-nodes       :       16742  7690.00000     7.71702           1       16730


SCIP> checksol

check best solution
solution is feasible in original problem
Violation          :    absolute    relative
  bounds           : 2.73115e-14 2.73115e-14
  integrality      : 2.73115e-14           -
  LP rows          : 2.73115e-14 2.73115e-14
  constraints      : 2.73115e-14 2.73115e-14

SCIP> write sol /local/tmp/bzfhende-tmpdir/bzfhende.MMMc.381_neos-935234.scip.M6440.enable_treeprofile.sol

written solution information to file </local/tmp/bzfhende-tmpdir/bzfhende.MMMc.381_neos-935234.scip.M640.enable_treeprofile.sol>

SCIP> quit

Disabling tree profile data collection
Read MPS: 1
MIP has 10309 vars and 9568 constraints
Read SOL: 1
Objective value computed by solver: 2431.99999999983

Integrality tolerance: 1/10000
Linear tolerance: 1/10000
Objective tolerance: 1/10000

Check SOL: Integrality 1 Constraints 1 Objective 1
Maximum violations: Integrality 3e-14 Constraints 4.8e-14 Objective 1.69541e-10
@04 1566528287
-----------------------------
Fr 23. Aug 04:44:47 CEST 2019
-----------------------------

=ready=
